p edge 637 1176
e 1 7 1
e 1 2 1
e 2 8 1
e 2 3 1
e 3 9 1
e 4 12 1
e 4 5 1
e 5 13 1
e 5 6 1
e 6 14 1
e 7 18 1
e 7 8 1
e 8 19 1
e 8 9 1
e 9 20 1
e 10 25 1
e 10 11 1
e 11 26 1
e 12 27 1
e 12 13 1
e 13 28 1
e 13 14 1
e 14 29 1
e 14 15 1
e 15 30 1
e 15 16 1
e 16 31 1
e 16 17 1
e 17 32 1
e 17 18 1
e 18 33 1
e 18 19 1
e 19 34 1
e 19 20 1
e 20 35 1
e 20 21 1
e 21 36 1
e 21 22 1
e 22 37 1
e 22 23 1
e 23 38 1
e 23 24 1
e 24 39 1
e 24 25 1
e 25 40 1
e 25 26 1
e 26 41 1
e 27 42 1
e 27 28 1
e 28 43 1
e 28 29 1
e 29 44 1
e 29 30 1
e 30 45 1
e 30 31 1
e 31 46 1
e 31 32 1
e 32 47 1
e 32 33 1
e 33 48 1
e 33 34 1
e 34 49 1
e 34 35 1
e 35 50 1
e 35 36 1
e 36 51 1
e 36 37 1
e 37 52 1
e 37 38 1
e 38 53 1
e 38 39 1
e 39 54 1
e 39 40 1
e 40 55 1
e 40 41 1
e 41 56 1
e 42 57 1
e 42 43 1
e 43 58 1
e 43 44 1
e 44 59 1
e 44 45 1
e 45 60 1
e 45 46 1
e 46 61 1
e 46 47 1
e 47 62 1
e 47 48 1
e 48 63 1
e 48 49 1
e 49 64 1
e 49 50 1
e 50 65 1
e 50 51 1
e 51 66 1
e 51 52 1
e 52 67 1
e 52 53 1
e 53 68 1
e 53 54 1
e 54 69 1
e 54 55 1
e 55 70 1
e 55 56 1
e 56 71 1
e 57 76 1
e 57 58 1
e 58 77 1
e 58 59 1
e 59 78 1
e 59 60 1
e 60 79 1
e 60 61 1
e 61 80 1
e 61 62 1
e 62 81 1
e 62 63 1
e 63 82 1
e 63 64 1
e 64 83 1
e 64 65 1
e 65 84 1
e 65 66 1
e 66 85 1
e 66 67 1
e 67 86 1
e 67 68 1
e 68 87 1
e 68 69 1
e 69 88 1
e 69 70 1
e 70 89 1
e 70 71 1
e 71 90 1
e 71 72 1
e 72 91 1
e 73 92 1
e 73 74 1
e 74 93 1
e 74 75 1
e 75 94 1
e 76 96 1
e 76 77 1
e 77 97 1
e 77 78 1
e 78 98 1
e 78 79 1
e 79 99 1
e 79 80 1
e 80 100 1
e 80 81 1
e 81 101 1
e 81 82 1
e 82 102 1
e 82 83 1
e 83 103 1
e 83 84 1
e 84 104 1
e 84 85 1
e 85 105 1
e 85 86 1
e 86 106 1
e 86 87 1
e 87 107 1
e 87 88 1
e 88 108 1
e 88 89 1
e 89 109 1
e 89 90 1
e 90 110 1
e 90 91 1
e 91 111 1
e 92 93 1
e 93 112 1
e 93 94 1
e 94 113 1
e 94 95 1
e 95 114 1
e 96 116 1
e 96 97 1
e 97 117 1
e 97 98 1
e 98 118 1
e 98 99 1
e 99 119 1
e 99 100 1
e 100 120 1
e 100 101 1
e 101 121 1
e 101 102 1
e 102 122 1
e 102 103 1
e 103 123 1
e 103 104 1
e 104 124 1
e 104 105 1
e 105 125 1
e 105 106 1
e 106 126 1
e 106 107 1
e 107 127 1
e 107 108 1
e 108 128 1
e 108 109 1
e 109 129 1
e 109 110 1
e 110 130 1
e 110 111 1
e 111 131 1
e 112 132 1
e 112 113 1
e 113 133 1
e 113 114 1
e 114 134 1
e 114 115 1
e 115 135 1
e 116 117 1
e 117 118 1
e 118 137 1
e 118 119 1
e 119 138 1
e 119 120 1
e 120 139 1
e 120 121 1
e 121 140 1
e 121 122 1
e 122 141 1
e 122 123 1
e 123 142 1
e 123 124 1
e 124 143 1
e 124 125 1
e 125 144 1
e 125 126 1
e 126 145 1
e 126 127 1
e 127 146 1
e 127 128 1
e 128 147 1
e 128 129 1
e 129 148 1
e 129 130 1
e 130 149 1
e 130 131 1
e 131 150 1
e 132 151 1
e 132 133 1
e 133 152 1
e 133 134 1
e 134 153 1
e 134 135 1
e 135 154 1
e 135 136 1
e 136 155 1
e 137 159 1
e 137 138 1
e 138 160 1
e 138 139 1
e 139 161 1
e 139 140 1
e 140 162 1
e 140 141 1
e 141 163 1
e 141 142 1
e 142 164 1
e 142 143 1
e 143 165 1
e 143 144 1
e 144 166 1
e 144 145 1
e 145 167 1
e 145 146 1
e 146 168 1
e 146 147 1
e 147 169 1
e 147 148 1
e 148 170 1
e 148 149 1
e 149 171 1
e 149 150 1
e 150 172 1
e 151 173 1
e 151 152 1
e 152 174 1
e 152 153 1
e 153 175 1
e 153 154 1
e 154 176 1
e 154 155 1
e 155 177 1
e 155 156 1
e 156 178 1
e 156 157 1
e 157 179 1
e 157 158 1
e 158 180 1
e 159 181 1
e 159 160 1
e 160 182 1
e 160 161 1
e 161 183 1
e 161 162 1
e 162 184 1
e 162 163 1
e 163 185 1
e 163 164 1
e 164 186 1
e 164 165 1
e 165 187 1
e 165 166 1
e 166 188 1
e 166 167 1
e 167 189 1
e 167 168 1
e 168 190 1
e 168 169 1
e 169 191 1
e 169 170 1
e 170 192 1
e 170 171 1
e 171 193 1
e 171 172 1
e 172 194 1
e 173 199 1
e 173 174 1
e 174 200 1
e 174 175 1
e 175 201 1
e 175 176 1
e 176 202 1
e 176 177 1
e 177 203 1
e 177 178 1
e 178 204 1
e 178 179 1
e 179 205 1
e 179 180 1
e 180 206 1
e 181 208 1
e 181 182 1
e 182 209 1
e 182 183 1
e 183 210 1
e 183 184 1
e 184 211 1
e 184 185 1
e 185 212 1
e 185 186 1
e 186 213 1
e 186 187 1
e 187 214 1
e 187 188 1
e 188 215 1
e 188 189 1
e 189 216 1
e 189 190 1
e 190 217 1
e 190 191 1
e 191 218 1
e 191 192 1
e 192 219 1
e 192 193 1
e 193 220 1
e 193 194 1
e 194 221 1
e 194 195 1
e 195 222 1
e 195 196 1
e 196 223 1
e 196 197 1
e 197 224 1
e 197 198 1
e 198 225 1
e 198 199 1
e 199 226 1
e 199 200 1
e 200 227 1
e 200 201 1
e 201 228 1
e 201 202 1
e 202 229 1
e 202 203 1
e 203 230 1
e 203 204 1
e 204 231 1
e 204 205 1
e 205 232 1
e 205 206 1
e 206 233 1
e 206 207 1
e 207 234 1
e 208 235 1
e 208 209 1
e 209 236 1
e 209 210 1
e 210 237 1
e 210 211 1
e 211 238 1
e 211 212 1
e 212 239 1
e 212 213 1
e 213 240 1
e 213 214 1
e 214 241 1
e 214 215 1
e 215 242 1
e 215 216 1
e 216 243 1
e 216 217 1
e 217 244 1
e 217 218 1
e 218 245 1
e 218 219 1
e 219 246 1
e 219 220 1
e 220 247 1
e 220 221 1
e 221 248 1
e 221 222 1
e 222 249 1
e 222 223 1
e 223 250 1
e 223 224 1
e 224 251 1
e 224 225 1
e 225 252 1
e 225 226 1
e 226 253 1
e 226 227 1
e 227 254 1
e 227 228 1
e 228 255 1
e 228 229 1
e 229 256 1
e 229 230 1
e 230 257 1
e 230 231 1
e 231 258 1
e 231 232 1
e 232 259 1
e 232 233 1
e 233 260 1
e 233 234 1
e 234 261 1
e 235 262 1
e 235 236 1
e 236 263 1
e 236 237 1
e 237 264 1
e 237 238 1
e 238 265 1
e 238 239 1
e 239 266 1
e 239 240 1
e 240 267 1
e 240 241 1
e 241 268 1
e 241 242 1
e 242 269 1
e 242 243 1
e 243 270 1
e 243 244 1
e 244 271 1
e 244 245 1
e 245 272 1
e 245 246 1
e 246 273 1
e 246 247 1
e 247 274 1
e 247 248 1
e 248 275 1
e 248 249 1
e 249 250 1
e 250 251 1
e 251 252 1
e 252 253 1
e 253 276 1
e 253 254 1
e 254 277 1
e 254 255 1
e 255 278 1
e 255 256 1
e 256 279 1
e 256 257 1
e 257 280 1
e 257 258 1
e 258 281 1
e 258 259 1
e 259 282 1
e 259 260 1
e 260 283 1
e 260 261 1
e 262 263 1
e 263 264 1
e 264 284 1
e 264 265 1
e 265 285 1
e 265 266 1
e 266 286 1
e 266 267 1
e 267 287 1
e 267 268 1
e 268 288 1
e 268 269 1
e 269 289 1
e 269 270 1
e 270 290 1
e 270 271 1
e 271 291 1
e 271 272 1
e 272 292 1
e 272 273 1
e 273 293 1
e 273 274 1
e 274 294 1
e 274 275 1
e 275 295 1
e 276 277 1
e 277 278 1
e 278 279 1
e 279 280 1
e 280 281 1
e 281 282 1
e 282 283 1
e 284 285 1
e 285 286 1
e 286 296 1
e 286 287 1
e 287 297 1
e 287 288 1
e 288 298 1
e 288 289 1
e 289 299 1
e 289 290 1
e 290 300 1
e 290 291 1
e 291 301 1
e 291 292 1
e 292 302 1
e 292 293 1
e 293 303 1
e 293 294 1
e 294 304 1
e 294 295 1
e 295 305 1
e 296 306 1
e 296 297 1
e 297 307 1
e 297 298 1
e 298 308 1
e 298 299 1
e 299 309 1
e 299 300 1
e 300 310 1
e 300 301 1
e 301 311 1
e 301 302 1
e 302 312 1
e 302 303 1
e 303 313 1
e 303 304 1
e 304 314 1
e 304 305 1
e 305 315 1
e 306 317 1
e 306 307 1
e 307 318 1
e 307 308 1
e 308 319 1
e 308 309 1
e 309 320 1
e 309 310 1
e 310 321 1
e 310 311 1
e 311 322 1
e 311 312 1
e 312 323 1
e 312 313 1
e 313 324 1
e 313 314 1
e 314 325 1
e 314 315 1
e 315 326 1
e 316 327 1
e 316 317 1
e 317 328 1
e 317 318 1
e 318 329 1
e 318 319 1
e 319 330 1
e 319 320 1
e 320 331 1
e 320 321 1
e 321 332 1
e 321 322 1
e 322 333 1
e 322 323 1
e 323 334 1
e 323 324 1
e 324 335 1
e 324 325 1
e 325 336 1
e 325 326 1
e 326 337 1
e 327 340 1
e 327 328 1
e 328 341 1
e 328 329 1
e 329 342 1
e 329 330 1
e 330 343 1
e 330 331 1
e 331 344 1
e 331 332 1
e 332 345 1
e 332 333 1
e 333 346 1
e 333 334 1
e 334 347 1
e 334 335 1
e 335 348 1
e 335 336 1
e 336 349 1
e 336 337 1
e 338 350 1
e 338 339 1
e 339 351 1
e 339 340 1
e 340 352 1
e 340 341 1
e 341 353 1
e 341 342 1
e 342 354 1
e 342 343 1
e 343 355 1
e 343 344 1
e 344 356 1
e 344 345 1
e 345 357 1
e 345 346 1
e 346 358 1
e 346 347 1
e 347 359 1
e 347 348 1
e 348 360 1
e 348 349 1
e 349 361 1
e 350 351 1
e 351 362 1
e 351 352 1
e 352 363 1
e 352 353 1
e 353 364 1
e 353 354 1
e 354 365 1
e 354 355 1
e 355 366 1
e 355 356 1
e 356 367 1
e 356 357 1
e 357 368 1
e 357 358 1
e 358 369 1
e 358 359 1
e 359 360 1
e 360 361 1
e 362 370 1
e 362 363 1
e 363 371 1
e 363 364 1
e 364 372 1
e 364 365 1
e 365 373 1
e 365 366 1
e 366 374 1
e 366 367 1
e 367 375 1
e 367 368 1
e 368 376 1
e 368 369 1
e 369 377 1
e 370 378 1
e 370 371 1
e 371 379 1
e 371 372 1
e 372 380 1
e 372 373 1
e 373 381 1
e 373 374 1
e 374 382 1
e 374 375 1
e 375 383 1
e 375 376 1
e 376 384 1
e 376 377 1
e 377 385 1
e 378 386 1
e 378 379 1
e 379 387 1
e 379 380 1
e 380 388 1
e 380 381 1
e 381 389 1
e 381 382 1
e 382 390 1
e 382 383 1
e 383 391 1
e 383 384 1
e 384 392 1
e 384 385 1
e 385 393 1
e 386 398 1
e 386 387 1
e 387 399 1
e 387 388 1
e 388 400 1
e 388 389 1
e 389 401 1
e 389 390 1
e 390 402 1
e 390 391 1
e 391 403 1
e 391 392 1
e 392 404 1
e 392 393 1
e 393 405 1
e 394 409 1
e 394 395 1
e 395 410 1
e 395 396 1
e 396 411 1
e 396 397 1
e 397 412 1
e 397 398 1
e 398 413 1
e 398 399 1
e 399 414 1
e 399 400 1
e 400 415 1
e 400 401 1
e 401 416 1
e 401 402 1
e 402 417 1
e 402 403 1
e 403 418 1
e 403 404 1
e 404 419 1
e 404 405 1
e 405 420 1
e 405 406 1
e 406 421 1
e 406 407 1
e 407 422 1
e 407 408 1
e 408 423 1
e 409 424 1
e 409 410 1
e 410 425 1
e 410 411 1
e 411 426 1
e 411 412 1
e 412 427 1
e 412 413 1
e 413 428 1
e 413 414 1
e 414 429 1
e 414 415 1
e 415 430 1
e 415 416 1
e 416 431 1
e 416 417 1
e 417 432 1
e 417 418 1
e 418 433 1
e 418 419 1
e 419 434 1
e 419 420 1
e 420 435 1
e 420 421 1
e 421 436 1
e 421 422 1
e 422 437 1
e 422 423 1
e 423 438 1
e 424 439 1
e 424 425 1
e 425 440 1
e 425 426 1
e 426 441 1
e 426 427 1
e 427 442 1
e 427 428 1
e 428 443 1
e 428 429 1
e 429 444 1
e 429 430 1
e 430 445 1
e 430 431 1
e 431 446 1
e 431 432 1
e 432 447 1
e 432 433 1
e 433 448 1
e 433 434 1
e 434 449 1
e 434 435 1
e 435 450 1
e 435 436 1
e 436 451 1
e 436 437 1
e 437 452 1
e 437 438 1
e 438 453 1
e 439 454 1
e 439 440 1
e 440 455 1
e 440 441 1
e 441 456 1
e 441 442 1
e 442 457 1
e 442 443 1
e 443 458 1
e 443 444 1
e 444 459 1
e 444 445 1
e 445 460 1
e 445 446 1
e 446 461 1
e 446 447 1
e 447 462 1
e 447 448 1
e 448 463 1
e 448 449 1
e 449 464 1
e 449 450 1
e 450 465 1
e 450 451 1
e 451 466 1
e 451 452 1
e 452 467 1
e 452 453 1
e 453 468 1
e 454 469 1
e 454 455 1
e 455 470 1
e 455 456 1
e 456 471 1
e 456 457 1
e 457 472 1
e 457 458 1
e 458 473 1
e 458 459 1
e 459 474 1
e 459 460 1
e 460 475 1
e 460 461 1
e 461 476 1
e 461 462 1
e 462 477 1
e 462 463 1
e 463 478 1
e 463 464 1
e 464 479 1
e 464 465 1
e 465 480 1
e 465 466 1
e 466 481 1
e 466 467 1
e 467 482 1
e 467 468 1
e 468 483 1
e 469 484 1
e 469 470 1
e 470 485 1
e 470 471 1
e 471 486 1
e 471 472 1
e 472 487 1
e 472 473 1
e 473 488 1
e 473 474 1
e 474 489 1
e 474 475 1
e 475 490 1
e 475 476 1
e 476 491 1
e 476 477 1
e 477 492 1
e 477 478 1
e 478 493 1
e 478 479 1
e 479 494 1
e 479 480 1
e 480 495 1
e 480 481 1
e 481 496 1
e 481 482 1
e 482 497 1
e 482 483 1
e 483 498 1
e 484 499 1
e 484 485 1
e 485 500 1
e 485 486 1
e 486 501 1
e 486 487 1
e 487 502 1
e 487 488 1
e 488 503 1
e 488 489 1
e 489 504 1
e 489 490 1
e 490 505 1
e 490 491 1
e 491 506 1
e 491 492 1
e 492 507 1
e 492 493 1
e 493 508 1
e 493 494 1
e 494 509 1
e 494 495 1
e 495 510 1
e 495 496 1
e 496 511 1
e 496 497 1
e 497 512 1
e 497 498 1
e 498 513 1
e 499 514 1
e 499 500 1
e 500 515 1
e 500 501 1
e 501 516 1
e 501 502 1
e 502 517 1
e 502 503 1
e 503 518 1
e 503 504 1
e 504 519 1
e 504 505 1
e 505 520 1
e 505 506 1
e 506 521 1
e 506 507 1
e 507 522 1
e 507 508 1
e 508 523 1
e 508 509 1
e 509 524 1
e 509 510 1
e 510 525 1
e 510 511 1
e 511 526 1
e 511 512 1
e 512 527 1
e 512 513 1
e 513 528 1
e 514 529 1
e 514 515 1
e 515 530 1
e 515 516 1
e 516 531 1
e 516 517 1
e 517 532 1
e 517 518 1
e 518 533 1
e 518 519 1
e 519 534 1
e 519 520 1
e 520 535 1
e 520 521 1
e 521 536 1
e 521 522 1
e 522 537 1
e 522 523 1
e 523 538 1
e 523 524 1
e 524 539 1
e 524 525 1
e 525 540 1
e 525 526 1
e 526 541 1
e 526 527 1
e 527 542 1
e 527 528 1
e 528 543 1
e 529 544 1
e 529 530 1
e 530 545 1
e 530 531 1
e 531 546 1
e 531 532 1
e 532 547 1
e 532 533 1
e 533 548 1
e 533 534 1
e 534 549 1
e 534 535 1
e 535 550 1
e 535 536 1
e 536 551 1
e 536 537 1
e 537 552 1
e 537 538 1
e 538 553 1
e 538 539 1
e 539 554 1
e 539 540 1
e 540 555 1
e 540 541 1
e 541 556 1
e 541 542 1
e 542 557 1
e 542 543 1
e 543 558 1
e 544 559 1
e 544 545 1
e 545 560 1
e 545 546 1
e 546 561 1
e 546 547 1
e 547 562 1
e 547 548 1
e 548 563 1
e 548 549 1
e 549 564 1
e 549 550 1
e 550 565 1
e 550 551 1
e 551 566 1
e 551 552 1
e 552 567 1
e 552 553 1
e 553 568 1
e 553 554 1
e 554 569 1
e 554 555 1
e 555 570 1
e 555 556 1
e 556 571 1
e 556 557 1
e 557 572 1
e 557 558 1
e 558 573 1
e 559 560 1
e 560 574 1
e 560 561 1
e 561 575 1
e 561 562 1
e 562 576 1
e 562 563 1
e 563 577 1
e 563 564 1
e 564 578 1
e 564 565 1
e 565 579 1
e 565 566 1
e 566 580 1
e 566 567 1
e 567 581 1
e 567 568 1
e 568 582 1
e 568 569 1
e 569 583 1
e 569 570 1
e 570 584 1
e 570 571 1
e 571 585 1
e 571 572 1
e 572 586 1
e 572 573 1
e 573 587 1
e 574 575 1
e 575 588 1
e 575 576 1
e 576 589 1
e 576 577 1
e 577 590 1
e 577 578 1
e 578 591 1
e 578 579 1
e 579 592 1
e 579 580 1
e 580 593 1
e 580 581 1
e 581 594 1
e 581 582 1
e 582 595 1
e 582 583 1
e 583 596 1
e 583 584 1
e 584 597 1
e 584 585 1
e 585 598 1
e 585 586 1
e 586 587 1
e 588 599 1
e 588 589 1
e 589 600 1
e 589 590 1
e 590 601 1
e 590 591 1
e 591 602 1
e 591 592 1
e 592 603 1
e 592 593 1
e 593 604 1
e 593 594 1
e 594 605 1
e 594 595 1
e 595 606 1
e 595 596 1
e 596 607 1
e 596 597 1
e 597 608 1
e 597 598 1
e 598 609 1
e 599 610 1
e 599 600 1
e 600 611 1
e 600 601 1
e 601 612 1
e 601 602 1
e 602 613 1
e 602 603 1
e 603 614 1
e 603 604 1
e 604 615 1
e 604 605 1
e 605 616 1
e 605 606 1
e 606 617 1
e 606 607 1
e 607 618 1
e 607 608 1
e 608 619 1
e 608 609 1
e 609 620 1
e 610 622 1
e 610 611 1
e 611 623 1
e 611 612 1
e 612 624 1
e 612 613 1
e 613 625 1
e 613 614 1
e 614 626 1
e 614 615 1
e 615 616 1
e 616 627 1
e 616 617 1
e 617 628 1
e 617 618 1
e 618 629 1
e 618 619 1
e 619 630 1
e 619 620 1
e 620 631 1
e 620 621 1
e 622 623 1
e 623 632 1
e 623 624 1
e 624 633 1
e 624 625 1
e 625 626 1
e 627 628 1
e 628 629 1
e 629 634 1
e 629 630 1
e 630 635 1
e 630 631 1
e 632 633 1
e 633 636 1
e 634 637 1
e 634 635 1